NAME : pr439
COMMENT : 439-city
TYPE : TOUR
DIMENSION : 439
TOUR_LENGTH : 114984
ERROR : 0.0724419
TOUR_SECTION
118
120
121
123
122
124
125
126
128
133
134
135
136
137
138
139
140
141
155
156
176
177
178
179
180
181
182
191
192
193
194
195
196
197
198
199
200
201
175
174
203
204
202
173
172
171
169
168
167
170
205
206
207
208
248
247
246
245
244
243
242
241
240
239
238
237
236
268
269
270
271
300
301
302
303
326
327
328
330
329
331
365
364
363
362
361
368
367
366
377
384
385
386
387
400
399
414
415
430
428
427
417
416
404
403
401
325
324
323
322
321
320
319
318
317
316
314
315
313
312
311
310
309
308
307
306
305
304
267
266
265
264
263
262
261
260
259
258
257
256
255
254
253
251
252
250
249
209
210
211
212
213
214
215
216
217
218
219
220
235
234
233
232
221
222
223
272
273
274
275
276
277
278
293
294
295
296
297
298
299
332
333
334
335
336
337
338
360
359
369
358
357
355
354
356
292
291
290
289
353
352
350
349
351
348
347
345
344
346
288
287
285
286
339
284
279
231
230
224
188
187
186
229
280
281
228
227
282
283
343
342
341
340
372
371
370
382
381
383
393
394
392
397
396
395
398
391
390
380
374
373
375
376
378
379
389
388
418
419
420
413
406
405
431
432
429
426
421
422
411
412
410
409
424
423
425
408
407
402
433
437
436
435
434
438
225
226
185
148
84
83
82
52
53
54
55
81
80
78
79
43
41
38
37
39
40
42
44
45
48
46
47
49
50
51
1
2
0
3
4
5
6
7
8
9
10
11
12
13
14
15
16
32
33
34
35
36
57
56
77
76
86
85
75
74
60
59
58
31
61
29
30
28
27
25
26
62
72
73
63
24
22
20
21
23
64
65
66
19
18
17
67
68
69
89
90
70
71
88
87
105
106
107
108
143
145
111
110
109
146
147
144
184
189
190
183
149
142
151
150
152
153
154
157
158
159
160
161
162
163
165
164
166
132
131
130
129
127
98
96
97
95
94
99
100
93
92
91
101
103
104
112
113
102
114
116
119
115
117
-1
EOF
